c "random instance"
p edges 150 3334
e 1 3
e 1 8
e 1 9
e 1 10
e 1 12
e 1 14
e 1 15
e 1 16
e 1 18
e 1 20
e 1 21
e 1 25
e 1 27
e 1 29
e 1 30
e 1 33
e 1 34
e 1 35
e 1 39
e 1 40
e 1 41
e 1 46
e 1 51
e 1 53
e 1 56
e 1 59
e 1 63
e 1 66
e 1 68
e 1 74
e 1 77
e 1 78
e 1 79
e 1 80
e 1 83
e 1 85
e 1 87
e 1 91
e 1 94
e 1 101
e 1 102
e 1 103
e 1 104
e 1 107
e 1 110
e 1 113
e 1 117
e 1 121
e 1 123
e 1 125
e 1 126
e 1 128
e 1 134
e 1 149
e 2 3
e 2 10
e 2 18
e 2 23
e 2 24
e 2 28
e 2 29
e 2 30
e 2 33
e 2 35
e 2 38
e 2 42
e 2 46
e 2 49
e 2 54
e 2 61
e 2 68
e 2 73
e 2 75
e 2 76
e 2 79
e 2 81
e 2 82
e 2 83
e 2 88
e 2 91
e 2 92
e 2 100
e 2 105
e 2 109
e 2 111
e 2 114
e 2 117
e 2 119
e 2 125
e 2 126
e 2 131
e 2 142
e 2 146
e 2 149
e 2 150
e 3 4
e 3 8
e 3 9
e 3 10
e 3 18
e 3 21
e 3 28
e 3 32
e 3 36
e 3 38
e 3 44
e 3 48
e 3 57
e 3 60
e 3 65
e 3 68
e 3 74
e 3 75
e 3 76
e 3 79
e 3 80
e 3 90
e 3 91
e 3 92
e 3 103
e 3 104
e 3 111
e 3 112
e 3 114
e 3 123
e 3 134
e 3 135
e 3 141
e 3 150
e 4 8
e 4 9
e 4 10
e 4 12
e 4 14
e 4 15
e 4 16
e 4 18
e 4 19
e 4 24
e 4 25
e 4 31
e 4 33
e 4 34
e 4 35
e 4 37
e 4 39
e 4 40
e 4 49
e 4 50
e 4 74
e 4 75
e 4 77
e 4 81
e 4 88
e 4 92
e 4 95
e 4 101
e 4 103
e 4 105
e 4 106
e 4 110
e 4 112
e 4 114
e 4 119
e 4 120
e 4 122
e 4 126
e 4 127
e 4 129
e 4 130
e 4 131
e 4 132
e 4 137
e 4 138
e 4 139
e 4 140
e 4 145
e 4 146
e 4 147
e 5 7
e 5 9
e 5 12
e 5 15
e 5 17
e 5 26
e 5 27
e 5 28
e 5 29
e 5 30
e 5 31
e 5 37
e 5 39
e 5 43
e 5 45
e 5 50
e 5 53
e 5 55
e 5 56
e 5 57
e 5 60
e 5 61
e 5 63
e 5 67
e 5 69
e 5 70
e 5 74
e 5 75
e 5 83
e 5 86
e 5 89
e 5 101
e 5 107
e 5 109
e 5 118
e 5 128
e 5 129
e 5 130
e 5 132
e 5 133
e 5 134
e 5 136
e 5 137
e 5 139
e 5 150
e 6 15
e 6 19
e 6 22
e 6 29
e 6 34
e 6 43
e 6 46
e 6 52
e 6 56
e 6 58
e 6 59
e 6 61
e 6 72
e 6 79
e 6 84
e 6 85
e 6 88
e 6 90
e 6 91
e 6 92
e 6 96
e 6 103
e 6 104
e 6 109
e 6 111
e 6 115
e 6 119
e 6 123
e 6 124
e 6 126
e 6 129
e 6 132
e 6 134
e 6 138
e 6 143
e 6 149
e 7 9
e 7 12
e 7 15
e 7 16
e 7 20
e 7 26
e 7 28
e 7 29
e 7 31
e 7 42
e 7 49
e 7 74
e 7 78
e 7 79
e 7 83
e 7 86
e 7 89
e 7 91
e 7 94
e 7 99
e 7 101
e 7 106
e 7 115
e 7 116
e 7 118
e 7 123
e 7 125
e 7 127
e 7 128
e 7 131
e 7 137
e 7 138
e 7 141
e 7 143
e 7 145
e 7 146
e 7 147
e 8 9
e 8 11
e 8 17
e 8 21
e 8 25
e 8 26
e 8 27
e 8 29
e 8 31
e 8 32
e 8 33
e 8 40
e 8 42
e 8 45
e 8 52
e 8 64
e 8 70
e 8 73
e 8 77
e 8 80
e 8 83
e 8 87
e 8 88
e 8 89
e 8 90
e 8 91
e 8 93
e 8 98
e 8 107
e 8 108
e 8 109
e 8 111
e 8 112
e 8 119
e 8 122
e 8 123
e 8 129
e 8 131
e 8 133
e 8 135
e 8 136
e 8 140
e 8 143
e 8 145
e 8 148
e 8 150
e 9 11
e 9 12
e 9 17
e 9 20
e 9 23
e 9 24
e 9 30
e 9 31
e 9 33
e 9 35
e 9 36
e 9 38
e 9 39
e 9 40
e 9 42
e 9 45
e 9 47
e 9 49
e 9 50
e 9 54
e 9 61
e 9 63
e 9 64
e 9 66
e 9 73
e 9 76
e 9 78
e 9 80
e 9 82
e 9 84
e 9 90
e 9 91
e 9 98
e 9 101
e 9 109
e 9 115
e 9 118
e 9 119
e 9 129
e 9 134
e 9 135
e 9 138
e 9 140
e 9 147
e 9 148
e 10 21
e 10 22
e 10 23
e 10 25
e 10 27
e 10 30
e 10 32
e 10 34
e 10 36
e 10 38
e 10 42
e 10 44
e 10 48
e 10 49
e 10 50
e 10 58
e 10 60
e 10 63
e 10 70
e 10 71
e 10 73
e 10 74
e 10 75
e 10 77
e 10 81
e 10 82
e 10 84
e 10 85
e 10 86
e 10 87
e 10 88
e 10 91
e 10 94
e 10 99
e 10 100
e 10 103
e 10 104
e 10 107
e 10 111
e 10 116
e 10 117
e 10 119
e 10 121
e 10 123
e 10 125
e 10 130
e 10 138
e 10 142
e 10 145
e 10 146
e 10 149
e 11 14
e 11 15
e 11 17
e 11 19
e 11 22
e 11 23
e 11 24
e 11 25
e 11 26
e 11 27
e 11 30
e 11 34
e 11 35
e 11 36
e 11 37
e 11 42
e 11 45
e 11 49
e 11 50
e 11 51
e 11 52
e 11 56
e 11 57
e 11 59
e 11 65
e 11 67
e 11 74
e 11 78
e 11 79
e 11 83
e 11 89
e 11 92
e 11 96
e 11 98
e 11 101
e 11 102
e 11 105
e 11 108
e 11 113
e 11 114
e 11 115
e 11 117
e 11 122
e 11 125
e 11 129
e 11 131
e 11 133
e 11 134
e 11 136
e 11 138
e 11 143
e 11 146
e 11 150
e 12 13
e 12 14
e 12 15
e 12 16
e 12 22
e 12 33
e 12 39
e 12 44
e 12 45
e 12 47
e 12 48
e 12 51
e 12 60
e 12 61
e 12 63
e 12 67
e 12 69
e 12 77
e 12 80
e 12 86
e 12 92
e 12 100
e 12 103
e 12 114
e 12 116
e 12 121
e 12 122
e 12 123
e 12 126
e 12 132
e 12 135
e 12 136
e 12 139
e 12 140
e 12 150
e 13 14
e 13 15
e 13 17
e 13 18
e 13 19
e 13 21
e 13 25
e 13 39
e 13 43
e 13 48
e 13 49
e 13 50
e 13 51
e 13 53
e 13 57
e 13 60
e 13 65
e 13 67
e 13 69
e 13 72
e 13 74
e 13 76
e 13 78
e 13 85
e 13 88
e 13 93
e 13 95
e 13 97
e 13 100
e 13 103
e 13 104
e 13 105
e 13 108
e 13 110
e 13 111
e 13 118
e 13 121
e 13 126
e 13 134
e 13 138
e 13 140
e 13 141
e 13 146
e 13 148
e 13 150
e 14 17
e 14 19
e 14 20
e 14 22
e 14 23
e 14 24
e 14 28
e 14 31
e 14 37
e 14 38
e 14 50
e 14 57
e 14 62
e 14 71
e 14 81
e 14 85
e 14 89
e 14 90
e 14 91
e 14 92
e 14 94
e 14 95
e 14 98
e 14 100
e 14 106
e 14 107
e 14 110
e 14 117
e 14 121
e 14 124
e 14 130
e 14 134
e 14 136
e 14 137
e 14 138
e 14 140
e 14 142
e 14 145
e 14 148
e 15 20
e 15 24
e 15 30
e 15 35
e 15 36
e 15 42
e 15 45
e 15 47
e 15 50
e 15 52
e 15 55
e 15 56
e 15 57
e 15 58
e 15 60
e 15 64
e 15 66
e 15 68
e 15 69
e 15 70
e 15 73
e 15 81
e 15 82
e 15 83
e 15 84
e 15 87
e 15 88
e 15 91
e 15 97
e 15 100
e 15 101
e 15 105
e 15 107
e 15 109
e 15 110
e 15 111
e 15 112
e 15 113
e 15 116
e 15 118
e 15 122
e 15 126
e 15 128
e 15 132
e 15 141
e 15 142
e 15 144
e 15 147
e 16 19
e 16 20
e 16 23
e 16 24
e 16 25
e 16 35
e 16 37
e 16 40
e 16 42
e 16 43
e 16 46
e 16 50
e 16 53
e 16 58
e 16 60
e 16 65
e 16 69
e 16 71
e 16 72
e 16 76
e 16 83
e 16 84
e 16 86
e 16 88
e 16 89
e 16 92
e 16 98
e 16 112
e 16 113
e 16 116
e 16 117
e 16 119
e 16 120
e 16 123
e 16 128
e 16 130
e 16 131
e 16 132
e 16 134
e 16 135
e 16 149
e 16 150
e 17 18
e 17 20
e 17 23
e 17 26
e 17 37
e 17 45
e 17 46
e 17 47
e 17 49
e 17 50
e 17 54
e 17 55
e 17 56
e 17 59
e 17 63
e 17 66
e 17 68
e 17 75
e 17 77
e 17 82
e 17 84
e 17 86
e 17 92
e 17 96
e 17 97
e 17 99
e 17 101
e 17 106
e 17 108
e 17 111
e 17 113
e 17 114
e 17 118
e 17 120
e 17 125
e 17 127
e 17 136
e 17 139
e 17 140
e 17 142
e 17 147
e 17 149
e 18 21
e 18 22
e 18 23
e 18 30
e 18 36
e 18 42
e 18 43
e 18 47
e 18 50
e 18 54
e 18 59
e 18 61
e 18 65
e 18 74
e 18 76
e 18 78
e 18 79
e 18 81
e 18 87
e 18 88
e 18 96
e 18 97
e 18 107
e 18 111
e 18 112
e 18 116
e 18 122
e 18 125
e 18 126
e 18 129
e 18 130
e 18 131
e 18 135
e 18 138
e 18 141
e 19 22
e 19 24
e 19 30
e 19 32
e 19 33
e 19 35
e 19 39
e 19 41
e 19 54
e 19 55
e 19 56
e 19 65
e 19 68
e 19 73
e 19 75
e 19 78
e 19 79
e 19 89
e 19 95
e 19 96
e 19 99
e 19 101
e 19 111
e 19 113
e 19 114
e 19 120
e 19 126
e 19 129
e 19 133
e 19 134
e 19 136
e 19 138
e 19 142
e 19 146
e 19 149
e 20 21
e 20 23
e 20 24
e 20 27
e 20 34
e 20 69
e 20 75
e 20 77
e 20 82
e 20 85
e 20 88
e 20 100
e 20 112
e 20 117
e 20 118
e 20 120
e 20 122
e 20 124
e 20 128
e 20 129
e 20 138
e 20 144
e 20 148
e 20 150
e 21 22
e 21 28
e 21 32
e 21 35
e 21 39
e 21 40
e 21 41
e 21 47
e 21 48
e 21 51
e 21 57
e 21 59
e 21 62
e 21 63
e 21 67
e 21 74
e 21 77
e 21 78
e 21 82
e 21 87
e 21 92
e 21 95
e 21 103
e 21 107
e 21 118
e 21 120
e 21 129
e 21 133
e 21 135
e 21 137
e 21 141
e 21 145
e 21 146
e 21 148
e 21 150
e 22 28
e 22 41
e 22 46
e 22 49
e 22 50
e 22 57
e 22 59
e 22 61
e 22 64
e 22 65
e 22 66
e 22 67
e 22 68
e 22 74
e 22 75
e 22 79
e 22 90
e 22 91
e 22 92
e 22 94
e 22 95
e 22 96
e 22 105
e 22 109
e 22 110
e 22 111
e 22 113
e 22 120
e 22 125
e 22 131
e 22 136
e 22 137
e 22 141
e 22 148
e 22 150
e 23 25
e 23 28
e 23 29
e 23 33
e 23 34
e 23 39
e 23 43
e 23 55
e 23 57
e 23 60
e 23 64
e 23 65
e 23 69
e 23 70
e 23 71
e 23 73
e 23 74
e 23 75
e 23 76
e 23 78
e 23 85
e 23 91
e 23 95
e 23 97
e 23 100
e 23 104
e 23 106
e 23 108
e 23 111
e 23 114
e 23 116
e 23 118
e 23 120
e 23 122
e 23 126
e 23 127
e 23 133
e 23 140
e 23 147
e 23 150
e 24 36
e 24 39
e 24 42
e 24 46
e 24 47
e 24 49
e 24 54
e 24 60
e 24 64
e 24 65
e 24 67
e 24 68
e 24 69
e 24 70
e 24 71
e 24 74
e 24 76
e 24 79
e 24 80
e 24 85
e 24 89
e 24 90
e 24 92
e 24 97
e 24 101
e 24 113
e 24 116
e 24 122
e 24 125
e 24 128
e 24 132
e 24 133
e 24 136
e 24 137
e 24 142
e 24 143
e 24 145
e 24 150
e 25 26
e 25 34
e 25 36
e 25 40
e 25 46
e 25 49
e 25 55
e 25 56
e 25 65
e 25 67
e 25 68
e 25 80
e 25 82
e 25 84
e 25 85
e 25 94
e 25 97
e 25 98
e 25 101
e 25 103
e 25 104
e 25 105
e 25 116
e 25 117
e 25 120
e 25 124
e 25 126
e 25 131
e 25 135
e 25 137
e 25 138
e 25 140
e 25 141
e 25 145
e 25 146
e 26 27
e 26 29
e 26 33
e 26 34
e 26 36
e 26 38
e 26 40
e 26 42
e 26 47
e 26 50
e 26 59
e 26 63
e 26 64
e 26 70
e 26 72
e 26 77
e 26 78
e 26 79
e 26 84
e 26 85
e 26 86
e 26 91
e 26 92
e 26 93
e 26 96
e 26 97
e 26 98
e 26 109
e 26 110
e 26 114
e 26 116
e 26 117
e 26 125
e 26 131
e 26 132
e 26 135
e 26 141
e 26 143
e 26 144
e 26 146
e 27 34
e 27 36
e 27 38
e 27 39
e 27 40
e 27 42
e 27 43
e 27 44
e 27 45
e 27 52
e 27 54
e 27 57
e 27 58
e 27 62
e 27 64
e 27 65
e 27 66
e 27 67
e 27 68
e 27 76
e 27 80
e 27 82
e 27 84
e 27 88
e 27 90
e 27 91
e 27 94
e 27 104
e 27 105
e 27 107
e 27 111
e 27 115
e 27 117
e 27 119
e 27 121
e 27 123
e 27 124
e 27 133
e 27 136
e 27 138
e 27 140
e 27 145
e 27 148
e 27 149
e 27 150
e 28 29
e 28 32
e 28 41
e 28 42
e 28 44
e 28 45
e 28 50
e 28 51
e 28 55
e 28 64
e 28 65
e 28 72
e 28 75
e 28 79
e 28 80
e 28 87
e 28 88
e 28 91
e 28 93
e 28 94
e 28 103
e 28 105
e 28 106
e 28 107
e 28 111
e 28 113
e 28 116
e 28 125
e 28 126
e 28 127
e 28 130
e 28 132
e 28 139
e 28 142
e 28 146
e 28 147
e 29 33
e 29 35
e 29 39
e 29 40
e 29 41
e 29 42
e 29 44
e 29 47
e 29 48
e 29 49
e 29 56
e 29 58
e 29 61
e 29 63
e 29 67
e 29 70
e 29 73
e 29 75
e 29 78
e 29 85
e 29 88
e 29 89
e 29 90
e 29 94
e 29 96
e 29 99
e 29 101
e 29 104
e 29 105
e 29 108
e 29 111
e 29 115
e 29 122
e 29 123
e 29 129
e 29 130
e 29 132
e 29 133
e 29 139
e 29 140
e 29 144
e 29 145
e 29 150
e 30 35
e 30 39
e 30 41
e 30 42
e 30 46
e 30 49
e 30 53
e 30 56
e 30 57
e 30 62
e 30 74
e 30 75
e 30 89
e 30 93
e 30 95
e 30 96
e 30 103
e 30 104
e 30 106
e 30 117
e 30 122
e 30 123
e 30 124
e 30 127
e 30 128
e 30 136
e 30 140
e 30 142
e 30 145
e 30 148
e 30 149
e 31 32
e 31 38
e 31 39
e 31 44
e 31 47
e 31 48
e 31 57
e 31 60
e 31 62
e 31 63
e 31 65
e 31 66
e 31 81
e 31 88
e 31 89
e 31 93
e 31 98
e 31 102
e 31 106
e 31 108
e 31 111
e 31 121
e 31 122
e 31 127
e 31 129
e 31 139
e 31 140
e 31 148
e 32 34
e 32 35
e 32 36
e 32 46
e 32 50
e 32 51
e 32 56
e 32 58
e 32 63
e 32 66
e 32 70
e 32 74
e 32 78
e 32 88
e 32 91
e 32 94
e 32 95
e 32 100
e 32 106
e 32 110
e 32 111
e 32 112
e 32 114
e 32 125
e 32 129
e 32 134
e 32 138
e 32 144
e 32 146
e 32 147
e 32 149
e 33 34
e 33 37
e 33 43
e 33 44
e 33 47
e 33 49
e 33 50
e 33 54
e 33 56
e 33 57
e 33 61
e 33 62
e 33 71
e 33 73
e 33 78
e 33 80
e 33 85
e 33 88
e 33 89
e 33 101
e 33 104
e 33 105
e 33 107
e 33 110
e 33 112
e 33 115
e 33 121
e 33 131
e 33 136
e 33 137
e 33 142
e 33 144
e 33 146
e 33 147
e 33 148
e 33 149
e 33 150
e 34 36
e 34 37
e 34 44
e 34 46
e 34 54
e 34 56
e 34 58
e 34 60
e 34 67
e 34 69
e 34 75
e 34 77
e 34 78
e 34 80
e 34 85
e 34 87
e 34 88
e 34 92
e 34 93
e 34 100
e 34 101
e 34 106
e 34 107
e 34 110
e 34 111
e 34 112
e 34 113
e 34 116
e 34 118
e 34 120
e 34 121
e 34 130
e 34 131
e 34 136
e 34 138
e 34 140
e 34 141
e 34 147
e 34 149
e 35 49
e 35 53
e 35 55
e 35 57
e 35 60
e 35 61
e 35 64
e 35 65
e 35 69
e 35 70
e 35 73
e 35 80
e 35 90
e 35 91
e 35 94
e 35 95
e 35 96
e 35 97
e 35 99
e 35 100
e 35 101
e 35 104
e 35 111
e 35 112
e 35 115
e 35 120
e 35 124
e 35 126
e 35 128
e 35 129
e 35 135
e 35 146
e 35 147
e 35 150
e 36 41
e 36 44
e 36 48
e 36 52
e 36 54
e 36 56
e 36 62
e 36 64
e 36 66
e 36 67
e 36 70
e 36 72
e 36 73
e 36 76
e 36 78
e 36 80
e 36 83
e 36 91
e 36 92
e 36 93
e 36 98
e 36 105
e 36 116
e 36 117
e 36 119
e 36 120
e 36 123
e 36 124
e 36 129
e 36 130
e 36 132
e 36 134
e 36 135
e 36 136
e 36 148
e 36 150
e 37 44
e 37 48
e 37 51
e 37 52
e 37 53
e 37 54
e 37 56
e 37 57
e 37 65
e 37 66
e 37 73
e 37 74
e 37 76
e 37 80
e 37 86
e 37 88
e 37 93
e 37 99
e 37 101
e 37 102
e 37 103
e 37 106
e 37 107
e 37 111
e 37 117
e 37 124
e 37 130
e 37 132
e 37 140
e 37 147
e 37 150
e 38 40
e 38 49
e 38 56
e 38 66
e 38 67
e 38 68
e 38 69
e 38 71
e 38 72
e 38 73
e 38 75
e 38 77
e 38 78
e 38 80
e 38 89
e 38 94
e 38 99
e 38 106
e 38 108
e 38 111
e 38 123
e 38 126
e 38 127
e 38 129
e 38 130
e 38 133
e 38 140
e 38 143
e 38 149
e 39 40
e 39 42
e 39 44
e 39 45
e 39 46
e 39 53
e 39 60
e 39 62
e 39 65
e 39 70
e 39 74
e 39 75
e 39 77
e 39 81
e 39 83
e 39 89
e 39 96
e 39 101
e 39 103
e 39 104
e 39 114
e 39 117
e 39 123
e 39 127
e 39 130
e 39 132
e 39 133
e 39 134
e 39 140
e 39 143
e 39 144
e 39 145
e 40 41
e 40 43
e 40 46
e 40 50
e 40 52
e 40 54
e 40 59
e 40 64
e 40 66
e 40 67
e 40 70
e 40 71
e 40 73
e 40 74
e 40 76
e 40 77
e 40 80
e 40 85
e 40 89
e 40 90
e 40 91
e 40 92
e 40 95
e 40 100
e 40 102
e 40 104
e 40 109
e 40 111
e 40 112
e 40 113
e 40 114
e 40 115
e 40 117
e 40 120
e 40 121
e 40 124
e 40 127
e 40 133
e 40 135
e 41 43
e 41 50
e 41 51
e 41 52
e 41 57
e 41 58
e 41 59
e 41 60
e 41 63
e 41 69
e 41 80
e 41 82
e 41 88
e 41 90
e 41 91
e 41 96
e 41 97
e 41 100
e 41 101
e 41 106
e 41 108
e 41 116
e 41 120
e 41 124
e 41 126
e 41 128
e 41 130
e 41 131
e 41 132
e 41 133
e 41 134
e 41 139
e 41 144
e 41 147
e 41 150
e 42 53
e 42 55
e 42 62
e 42 66
e 42 75
e 42 76
e 42 80
e 42 83
e 42 84
e 42 91
e 42 93
e 42 100
e 42 101
e 42 106
e 42 107
e 42 110
e 42 111
e 42 115
e 42 117
e 42 119
e 42 122
e 42 124
e 42 125
e 42 130
e 42 132
e 42 133
e 42 137
e 42 140
e 42 142
e 42 145
e 42 146
e 43 44
e 43 47
e 43 52
e 43 54
e 43 55
e 43 57
e 43 59
e 43 73
e 43 74
e 43 76
e 43 86
e 43 88
e 43 89
e 43 90
e 43 94
e 43 95
e 43 96
e 43 100
e 43 101
e 43 102
e 43 103
e 43 114
e 43 115
e 43 116
e 43 120
e 43 127
e 43 130
e 43 133
e 43 143
e 43 146
e 43 148
e 44 50
e 44 51
e 44 54
e 44 57
e 44 59
e 44 63
e 44 69
e 44 73
e 44 76
e 44 84
e 44 88
e 44 99
e 44 100
e 44 104
e 44 105
e 44 115
e 44 117
e 44 118
e 44 120
e 44 122
e 44 125
e 44 126
e 44 127
e 44 131
e 44 136
e 44 142
e 44 147
e 45 46
e 45 50
e 45 51
e 45 56
e 45 61
e 45 63
e 45 64
e 45 69
e 45 70
e 45 71
e 45 75
e 45 77
e 45 78
e 45 79
e 45 80
e 45 81
e 45 91
e 45 94
e 45 96
e 45 103
e 45 104
e 45 106
e 45 115
e 45 116
e 45 117
e 45 125
e 45 131
e 45 133
e 45 144
e 45 147
e 45 148
e 46 47
e 46 50
e 46 55
e 46 56
e 46 58
e 46 61
e 46 62
e 46 63
e 46 64
e 46 65
e 46 66
e 46 67
e 46 70
e 46 75
e 46 76
e 46 80
e 46 83
e 46 87
e 46 93
e 46 95
e 46 96
e 46 98
e 46 99
e 46 107
e 46 108
e 46 110
e 46 111
e 46 112
e 46 115
e 46 119
e 46 120
e 46 122
e 46 124
e 46 133
e 46 142
e 46 149
e 46 150
e 47 57
e 47 58
e 47 60
e 47 61
e 47 62
e 47 65
e 47 66
e 47 70
e 47 72
e 47 76
e 47 83
e 47 84
e 47 86
e 47 93
e 47 96
e 47 102
e 47 103
e 47 104
e 47 105
e 47 106
e 47 107
e 47 110
e 47 112
e 47 114
e 47 120
e 47 122
e 47 124
e 47 125
e 47 133
e 47 134
e 47 135
e 47 141
e 47 144
e 47 148
e 47 149
e 48 50
e 48 57
e 48 58
e 48 59
e 48 60
e 48 62
e 48 63
e 48 69
e 48 70
e 48 71
e 48 74
e 48 75
e 48 83
e 48 84
e 48 85
e 48 98
e 48 100
e 48 101
e 48 103
e 48 106
e 48 108
e 48 112
e 48 113
e 48 115
e 48 117
e 48 123
e 48 127
e 48 129
e 48 131
e 48 133
e 48 135
e 48 137
e 48 138
e 48 139
e 48 140
e 48 141
e 48 148
e 49 51
e 49 59
e 49 62
e 49 63
e 49 66
e 49 69
e 49 70
e 49 75
e 49 79
e 49 82
e 49 87
e 49 95
e 49 96
e 49 98
e 49 99
e 49 100
e 49 103
e 49 109
e 49 119
e 49 125
e 49 127
e 49 132
e 49 139
e 49 143
e 50 55
e 50 57
e 50 63
e 50 65
e 50 77
e 50 78
e 50 81
e 50 84
e 50 93
e 50 97
e 50 99
e 50 102
e 50 103
e 50 105
e 50 107
e 50 108
e 50 109
e 50 113
e 50 115
e 50 116
e 50 117
e 50 118
e 50 119
e 50 122
e 50 127
e 50 132
e 50 133
e 50 134
e 50 135
e 50 136
e 50 137
e 50 145
e 50 148
e 51 60
e 51 62
e 51 63
e 51 66
e 51 70
e 51 74
e 51 75
e 51 80
e 51 82
e 51 88
e 51 89
e 51 100
e 51 107
e 51 111
e 51 112
e 51 114
e 51 117
e 51 119
e 51 121
e 51 122
e 51 124
e 51 126
e 51 132
e 51 136
e 51 138
e 51 142
e 51 148
e 52 53
e 52 54
e 52 55
e 52 62
e 52 68
e 52 70
e 52 77
e 52 78
e 52 80
e 52 82
e 52 85
e 52 86
e 52 87
e 52 90
e 52 92
e 52 93
e 52 97
e 52 101
e 52 103
e 52 107
e 52 108
e 52 110
e 52 114
e 52 115
e 52 116
e 52 118
e 52 121
e 52 122
e 52 123
e 52 125
e 52 132
e 52 133
e 52 143
e 52 146
e 52 147
e 52 149
e 53 62
e 53 63
e 53 73
e 53 75
e 53 83
e 53 84
e 53 85
e 53 86
e 53 87
e 53 89
e 53 91
e 53 92
e 53 98
e 53 99
e 53 100
e 53 101
e 53 103
e 53 110
e 53 111
e 53 113
e 53 116
e 53 117
e 53 123
e 53 127
e 53 130
e 53 135
e 53 136
e 53 139
e 53 142
e 53 145
e 53 148
e 54 56
e 54 58
e 54 60
e 54 64
e 54 66
e 54 73
e 54 80
e 54 81
e 54 89
e 54 99
e 54 103
e 54 104
e 54 110
e 54 112
e 54 118
e 54 125
e 54 127
e 54 129
e 54 139
e 54 142
e 54 144
e 54 146
e 54 150
e 55 58
e 55 65
e 55 67
e 55 72
e 55 74
e 55 79
e 55 83
e 55 84
e 55 86
e 55 88
e 55 90
e 55 97
e 55 102
e 55 120
e 55 124
e 55 131
e 55 139
e 55 140
e 55 147
e 55 148
e 55 150
e 56 60
e 56 61
e 56 62
e 56 63
e 56 66
e 56 73
e 56 74
e 56 75
e 56 77
e 56 83
e 56 90
e 56 101
e 56 103
e 56 104
e 56 110
e 56 112
e 56 113
e 56 118
e 56 121
e 56 122
e 56 129
e 56 142
e 56 143
e 56 147
e 57 59
e 57 61
e 57 62
e 57 65
e 57 68
e 57 70
e 57 74
e 57 78
e 57 79
e 57 86
e 57 94
e 57 95
e 57 96
e 57 101
e 57 102
e 57 105
e 57 109
e 57 112
e 57 115
e 57 119
e 57 126
e 57 133
e 57 138
e 57 143
e 57 150
e 58 61
e 58 64
e 58 68
e 58 70
e 58 71
e 58 77
e 58 79
e 58 82
e 58 87
e 58 91
e 58 92
e 58 99
e 58 100
e 58 103
e 58 105
e 58 106
e 58 111
e 58 115
e 58 118
e 58 123
e 58 126
e 58 128
e 58 129
e 58 130
e 58 132
e 58 134
e 58 136
e 58 138
e 58 139
e 58 142
e 58 146
e 58 147
e 58 148
e 59 68
e 59 74
e 59 76
e 59 79
e 59 81
e 59 86
e 59 87
e 59 90
e 59 91
e 59 93
e 59 94
e 59 98
e 59 100
e 59 103
e 59 106
e 59 108
e 59 109
e 59 119
e 59 121
e 59 124
e 59 125
e 59 126
e 59 128
e 59 129
e 59 131
e 59 133
e 59 142
e 59 146
e 59 147
e 59 148
e 60 61
e 60 63
e 60 64
e 60 71
e 60 75
e 60 80
e 60 82
e 60 84
e 60 88
e 60 98
e 60 110
e 60 113
e 60 118
e 60 120
e 60 133
e 60 135
e 60 136
e 60 137
e 60 139
e 60 140
e 60 148
e 60 149
e 61 63
e 61 64
e 61 66
e 61 68
e 61 77
e 61 82
e 61 84
e 61 86
e 61 90
e 61 91
e 61 92
e 61 102
e 61 104
e 61 107
e 61 108
e 61 111
e 61 116
e 61 117
e 61 118
e 61 123
e 61 127
e 61 131
e 61 132
e 61 133
e 61 137
e 61 141
e 61 146
e 61 149
e 61 150
e 62 64
e 62 67
e 62 68
e 62 71
e 62 80
e 62 87
e 62 92
e 62 100
e 62 101
e 62 107
e 62 108
e 62 112
e 62 114
e 62 117
e 62 118
e 62 119
e 62 123
e 62 126
e 62 130
e 62 131
e 62 132
e 62 134
e 62 135
e 62 139
e 62 140
e 62 143
e 62 144
e 62 150
e 63 68
e 63 71
e 63 79
e 63 80
e 63 81
e 63 82
e 63 89
e 63 90
e 63 91
e 63 93
e 63 101
e 63 102
e 63 104
e 63 105
e 63 120
e 63 122
e 63 126
e 63 128
e 63 144
e 63 148
e 64 65
e 64 66
e 64 72
e 64 73
e 64 78
e 64 79
e 64 81
e 64 82
e 64 88
e 64 95
e 64 96
e 64 97
e 64 99
e 64 100
e 64 119
e 64 120
e 64 124
e 64 126
e 64 128
e 64 130
e 64 132
e 64 138
e 64 149
e 65 67
e 65 68
e 65 70
e 65 72
e 65 76
e 65 79
e 65 80
e 65 84
e 65 85
e 65 90
e 65 91
e 65 96
e 65 97
e 65 102
e 65 105
e 65 106
e 65 111
e 65 113
e 65 118
e 65 119
e 65 120
e 65 121
e 65 122
e 65 128
e 65 132
e 65 137
e 65 139
e 65 141
e 65 144
e 65 147
e 65 148
e 65 150
e 66 67
e 66 78
e 66 83
e 66 85
e 66 97
e 66 99
e 66 101
e 66 104
e 66 114
e 66 119
e 66 120
e 66 121
e 66 127
e 66 131
e 66 135
e 66 141
e 67 72
e 67 73
e 67 79
e 67 83
e 67 87
e 67 88
e 67 89
e 67 90
e 67 92
e 67 96
e 67 98
e 67 99
e 67 102
e 67 105
e 67 107
e 67 113
e 67 116
e 67 119
e 67 120
e 67 122
e 67 124
e 67 126
e 67 128
e 67 130
e 67 138
e 67 140
e 67 146
e 67 149
e 68 71
e 68 74
e 68 76
e 68 78
e 68 79
e 68 81
e 68 82
e 68 90
e 68 100
e 68 101
e 68 103
e 68 105
e 68 106
e 68 110
e 68 114
e 68 115
e 68 118
e 68 119
e 68 120
e 68 121
e 68 125
e 68 135
e 68 137
e 68 140
e 68 147
e 68 149
e 69 75
e 69 76
e 69 79
e 69 81
e 69 83
e 69 85
e 69 90
e 69 97
e 69 100
e 69 104
e 69 106
e 69 107
e 69 109
e 69 111
e 69 116
e 69 122
e 69 123
e 69 125
e 69 127
e 69 128
e 69 129
e 69 137
e 69 138
e 69 139
e 69 140
e 69 142
e 69 143
e 69 145
e 69 147
e 70 72
e 70 76
e 70 80
e 70 81
e 70 83
e 70 84
e 70 85
e 70 94
e 70 95
e 70 103
e 70 105
e 70 108
e 70 109
e 70 114
e 70 115
e 70 119
e 70 123
e 70 135
e 70 145
e 70 146
e 70 150
e 71 72
e 71 73
e 71 74
e 71 76
e 71 82
e 71 90
e 71 92
e 71 97
e 71 99
e 71 106
e 71 110
e 71 111
e 71 118
e 71 119
e 71 121
e 71 124
e 71 127
e 71 130
e 71 133
e 71 139
e 71 147
e 71 148
e 72 73
e 72 81
e 72 84
e 72 87
e 72 88
e 72 91
e 72 93
e 72 94
e 72 96
e 72 97
e 72 99
e 72 100
e 72 105
e 72 107
e 72 119
e 72 122
e 72 126
e 72 127
e 72 129
e 72 131
e 72 134
e 72 136
e 72 142
e 72 145
e 72 149
e 73 78
e 73 79
e 73 82
e 73 86
e 73 91
e 73 103
e 73 104
e 73 105
e 73 106
e 73 108
e 73 115
e 73 117
e 73 118
e 73 122
e 73 124
e 73 125
e 73 128
e 73 132
e 73 136
e 73 140
e 73 144
e 73 147
e 73 149
e 74 75
e 74 79
e 74 82
e 74 84
e 74 88
e 74 94
e 74 95
e 74 96
e 74 102
e 74 104
e 74 107
e 74 108
e 74 110
e 74 114
e 74 115
e 74 116
e 74 133
e 74 134
e 74 136
e 74 138
e 74 139
e 74 147
e 74 148
e 75 80
e 75 81
e 75 83
e 75 86
e 75 88
e 75 91
e 75 100
e 75 103
e 75 108
e 75 109
e 75 114
e 75 123
e 75 130
e 75 135
e 75 140
e 75 141
e 75 142
e 75 148
e 75 149
e 76 77
e 76 79
e 76 80
e 76 81
e 76 82
e 76 101
e 76 104
e 76 105
e 76 106
e 76 111
e 76 114
e 76 116
e 76 120
e 76 130
e 76 136
e 76 142
e 76 147
e 77 79
e 77 94
e 77 98
e 77 103
e 77 109
e 77 112
e 77 115
e 77 117
e 77 119
e 77 120
e 77 121
e 77 124
e 77 131
e 77 132
e 77 133
e 77 134
e 77 140
e 77 142
e 77 148
e 78 81
e 78 85
e 78 87
e 78 93
e 78 94
e 78 100
e 78 108
e 78 111
e 78 112
e 78 120
e 78 123
e 78 124
e 78 127
e 78 128
e 78 132
e 78 137
e 78 141
e 78 145
e 78 146
e 78 147
e 78 149
e 78 150
e 79 80
e 79 84
e 79 92
e 79 94
e 79 98
e 79 109
e 79 118
e 79 121
e 79 122
e 79 126
e 79 131
e 79 134
e 79 142
e 79 145
e 79 148
e 79 149
e 79 150
e 80 85
e 80 88
e 80 94
e 80 97
e 80 104
e 80 105
e 80 106
e 80 108
e 80 112
e 80 122
e 80 123
e 80 126
e 80 128
e 80 129
e 80 138
e 80 140
e 80 141
e 80 144
e 81 87
e 81 88
e 81 90
e 81 92
e 81 93
e 81 96
e 81 98
e 81 100
e 81 101
e 81 108
e 81 111
e 81 112
e 81 113
e 81 115
e 81 118
e 81 121
e 81 123
e 81 124
e 81 132
e 81 133
e 81 139
e 81 140
e 81 142
e 81 146
e 81 147
e 81 148
e 81 150
e 82 92
e 82 94
e 82 96
e 82 97
e 82 100
e 82 105
e 82 106
e 82 112
e 82 113
e 82 116
e 82 118
e 82 121
e 82 125
e 82 128
e 82 131
e 82 133
e 82 135
e 82 136
e 82 137
e 82 141
e 82 142
e 82 144
e 83 84
e 83 88
e 83 91
e 83 93
e 83 94
e 83 100
e 83 102
e 83 104
e 83 106
e 83 116
e 83 117
e 83 123
e 83 128
e 83 129
e 83 130
e 83 134
e 83 139
e 83 143
e 83 144
e 83 149
e 83 150
e 84 86
e 84 88
e 84 92
e 84 96
e 84 97
e 84 99
e 84 101
e 84 110
e 84 112
e 84 113
e 84 114
e 84 116
e 84 118
e 84 119
e 84 120
e 84 122
e 84 125
e 84 127
e 84 130
e 84 133
e 84 136
e 84 138
e 84 139
e 84 140
e 84 149
e 85 88
e 85 91
e 85 93
e 85 94
e 85 97
e 85 99
e 85 101
e 85 105
e 85 106
e 85 110
e 85 114
e 85 116
e 85 118
e 85 124
e 85 126
e 85 130
e 85 131
e 85 132
e 85 138
e 85 141
e 85 144
e 85 149
e 85 150
e 86 90
e 86 95
e 86 98
e 86 100
e 86 106
e 86 107
e 86 110
e 86 111
e 86 120
e 86 121
e 86 126
e 86 129
e 86 130
e 86 136
e 86 141
e 86 148
e 87 91
e 87 94
e 87 96
e 87 102
e 87 107
e 87 108
e 87 109
e 87 112
e 87 113
e 87 114
e 87 116
e 87 117
e 87 123
e 87 128
e 87 130
e 87 137
e 87 143
e 87 147
e 87 150
e 88 93
e 88 95
e 88 96
e 88 98
e 88 100
e 88 108
e 88 109
e 88 111
e 88 112
e 88 113
e 88 114
e 88 116
e 88 117
e 88 121
e 88 126
e 88 128
e 88 129
e 88 134
e 88 137
e 88 140
e 88 144
e 88 146
e 88 147
e 89 90
e 89 91
e 89 94
e 89 101
e 89 103
e 89 108
e 89 111
e 89 116
e 89 117
e 89 121
e 89 123
e 89 127
e 89 131
e 89 139
e 89 140
e 89 142
e 89 144
e 89 145
e 89 146
e 89 149
e 90 91
e 90 92
e 90 98
e 90 100
e 90 103
e 90 106
e 90 111
e 90 118
e 90 120
e 90 123
e 90 125
e 90 126
e 90 127
e 90 129
e 90 133
e 90 136
e 90 145
e 90 147
e 90 148
e 90 149
e 91 97
e 91 98
e 91 100
e 91 106
e 91 108
e 91 109
e 91 111
e 91 113
e 91 114
e 91 119
e 91 126
e 91 131
e 91 139
e 91 140
e 91 141
e 91 143
e 91 145
e 91 147
e 92 95
e 92 97
e 92 99
e 92 102
e 92 104
e 92 106
e 92 107
e 92 108
e 92 109
e 92 114
e 92 116
e 92 120
e 92 125
e 92 126
e 92 128
e 92 136
e 92 145
e 93 94
e 93 95
e 93 102
e 93 103
e 93 104
e 93 107
e 93 110
e 93 113
e 93 118
e 93 119
e 93 123
e 93 124
e 93 127
e 93 129
e 93 131
e 93 133
e 93 134
e 93 135
e 93 136
e 93 140
e 93 145
e 93 147
e 94 95
e 94 96
e 94 106
e 94 113
e 94 114
e 94 116
e 94 124
e 94 125
e 94 140
e 95 97
e 95 103
e 95 105
e 95 112
e 95 116
e 95 117
e 95 119
e 95 122
e 95 123
e 95 128
e 95 130
e 95 132
e 95 133
e 95 137
e 95 138
e 95 143
e 95 150
e 96 98
e 96 99
e 96 105
e 96 108
e 96 110
e 96 113
e 96 114
e 96 122
e 96 140
e 96 143
e 96 146
e 96 147
e 96 148
e 97 100
e 97 102
e 97 105
e 97 106
e 97 108
e 97 119
e 97 120
e 97 123
e 97 125
e 97 126
e 97 128
e 97 130
e 97 133
e 97 135
e 97 136
e 97 140
e 97 144
e 97 149
e 98 101
e 98 102
e 98 105
e 98 107
e 98 109
e 98 111
e 98 114
e 98 119
e 98 120
e 98 128
e 98 129
e 98 132
e 98 139
e 98 147
e 98 148
e 98 149
e 99 103
e 99 104
e 99 106
e 99 107
e 99 108
e 99 111
e 99 113
e 99 115
e 99 120
e 99 127
e 99 130
e 99 132
e 99 134
e 99 140
e 99 141
e 99 144
e 99 147
e 99 148
e 100 101
e 100 102
e 100 106
e 100 107
e 100 109
e 100 112
e 100 117
e 100 118
e 100 120
e 100 122
e 100 123
e 100 124
e 100 128
e 100 129
e 100 132
e 100 133
e 100 139
e 100 143
e 100 145
e 100 147
e 100 149
e 101 107
e 101 108
e 101 110
e 101 111
e 101 115
e 101 117
e 101 121
e 101 125
e 101 126
e 101 127
e 101 129
e 101 133
e 101 134
e 101 140
e 101 141
e 101 142
e 101 145
e 101 146
e 101 148
e 101 149
e 102 109
e 102 110
e 102 112
e 102 131
e 102 136
e 102 137
e 102 146
e 102 147
e 102 148
e 102 150
e 103 111
e 103 112
e 103 115
e 103 118
e 103 119
e 103 130
e 103 132
e 103 133
e 103 135
e 103 138
e 103 146
e 103 148
e 104 105
e 104 108
e 104 110
e 104 113
e 104 116
e 104 117
e 104 118
e 104 119
e 104 124
e 104 130
e 104 131
e 104 132
e 104 133
e 104 141
e 104 142
e 104 146
e 105 110
e 105 118
e 105 121
e 105 123
e 105 129
e 105 130
e 105 134
e 105 140
e 105 141
e 105 146
e 105 147
e 106 110
e 106 121
e 106 130
e 106 137
e 106 139
e 106 140
e 106 141
e 106 143
e 106 144
e 106 147
e 107 110
e 107 111
e 107 113
e 107 118
e 107 120
e 107 132
e 107 135
e 107 143
e 107 144
e 107 145
e 107 150
e 108 110
e 108 111
e 108 112
e 108 120
e 108 126
e 108 127
e 108 128
e 108 130
e 108 133
e 108 137
e 108 144
e 108 145
e 109 115
e 109 122
e 109 123
e 109 126
e 109 131
e 109 133
e 109 135
e 109 138
e 109 143
e 110 117
e 110 123
e 110 124
e 110 127
e 110 128
e 110 132
e 110 134
e 110 138
e 110 139
e 110 148
e 110 150
e 111 112
e 111 115
e 111 118
e 111 119
e 111 123
e 111 131
e 111 133
e 111 137
e 111 140
e 111 141
e 111 143
e 111 145
e 112 114
e 112 122
e 112 123
e 112 128
e 112 129
e 112 131
e 112 133
e 112 136
e 112 137
e 112 143
e 112 144
e 112 146
e 113 122
e 113 131
e 113 132
e 113 135
e 113 137
e 113 141
e 113 142
e 113 146
e 114 122
e 114 123
e 114 129
e 114 131
e 114 132
e 114 137
e 114 141
e 114 147
e 114 148
e 114 149
e 114 150
e 115 132
e 115 142
e 115 145
e 115 148
e 115 149
e 115 150
e 116 121
e 116 123
e 116 129
e 116 132
e 116 133
e 116 141
e 116 142
e 116 145
e 116 147
e 117 118
e 117 122
e 117 123
e 117 125
e 117 131
e 117 134
e 117 139
e 117 143
e 118 122
e 118 125
e 118 127
e 118 132
e 118 135
e 118 136
e 118 142
e 118 148
e 119 120
e 119 121
e 119 125
e 119 129
e 119 132
e 119 144
e 119 146
e 119 149
e 119 150
e 120 121
e 120 123
e 120 124
e 120 129
e 120 130
e 120 131
e 120 135
e 120 139
e 120 150
e 121 123
e 121 125
e 121 126
e 121 128
e 121 129
e 121 130
e 121 133
e 121 134
e 121 135
e 121 148
e 122 124
e 122 126
e 122 132
e 122 134
e 122 139
e 122 141
e 122 142
e 122 145
e 122 149
e 122 150
e 123 130
e 123 133
e 123 136
e 123 137
e 123 141
e 123 143
e 123 149
e 123 150
e 124 132
e 124 133
e 124 135
e 124 136
e 124 138
e 124 139
e 124 142
e 125 130
e 125 132
e 125 138
e 125 139
e 125 141
e 125 142
e 125 147
e 126 127
e 126 130
e 126 132
e 126 133
e 126 134
e 126 137
e 126 138
e 126 143
e 126 145
e 126 147
e 127 128
e 127 131
e 127 135
e 127 139
e 127 144
e 127 146
e 127 147
e 128 137
e 128 140
e 128 145
e 128 147
e 129 131
e 129 134
e 129 137
e 129 143
e 129 145
e 129 150
e 130 131
e 130 133
e 130 137
e 130 138
e 130 141
e 130 147
e 131 133
e 131 134
e 131 136
e 131 145
e 131 146
e 132 140
e 132 142
e 132 143
e 132 144
e 132 146
e 133 137
e 133 139
e 133 141
e 133 142
e 133 147
e 133 148
e 134 135
e 134 136
e 134 140
e 134 142
e 134 144
e 134 145
e 134 147
e 135 136
e 135 141
e 135 142
e 135 146
e 135 149
e 136 139
e 136 143
e 136 145
e 137 145
e 137 148
e 137 149
e 138 140
e 138 143
e 138 144
e 138 147
e 139 146
e 139 150
e 140 141
e 140 144
e 140 146
e 141 142
e 142 143
e 142 144
e 142 148
e 143 144
e 143 145
e 143 146
e 143 147
e 143 148
e 144 150
e 145 148
e 146 147
e 146 149
e 147 148
e 147 150
e 148 149
